; SPDX-License-Identifier: MPL-2.0
; Copyright (c) 2026 The RIINA Authors.
; Auto-generated from 02_FORMAL/coq/domains/SecureUpdates.v (25 validations)
; Generated by scripts/generate-full-stack.py
;
; Translation Validation for SecureUpdates
; Layer 9: Verifies compiler backend preserves formal semantics.
; Each assertion checks source IR ≡ target code for a proven property.

(set-logic QF_LIA)
(set-option :produce-models true)

; IR node representation
(declare-sort IRNode 0)
(declare-sort TargetNode 0)

; version_gt: source semantics (matches Coq)
(declare-fun source_version_gt () Bool)
(declare-fun target_version_gt () Bool)
(assert (= source_version_gt target_version_gt))

; version_gte: source semantics (matches Coq)
(declare-fun source_version_gte () Bool)
(declare-fun target_version_gte () Bool)
(assert (= source_version_gte target_version_gte))

; signatures_sufficient: source semantics (matches Coq)
(declare-fun source_signatures_sufficient () Bool)
(declare-fun target_signatures_sufficient () Bool)
(assert (= source_signatures_sufficient target_signatures_sufficient))

; key_trusted: source semantics (matches Coq)
(declare-fun source_key_trusted () Bool)
(declare-fun target_key_trusted () Bool)
(assert (= source_key_trusted target_key_trusted))

; rollback_counter_ok: source semantics (matches Coq)
(declare-fun source_rollback_counter_ok () Bool)
(declare-fun target_rollback_counter_ok () Bool)
(assert (= source_rollback_counter_ok target_rollback_counter_ok))

; hash_valid: source semantics (matches Coq)
(declare-fun source_hash_valid () Bool)
(declare-fun target_hash_valid () Bool)
(assert (= source_hash_valid target_hash_valid))

; atomic_complete: source semantics (matches Coq)
(declare-fun source_atomic_complete () Bool)
(declare-fun target_atomic_complete () Bool)
(assert (= source_atomic_complete target_atomic_complete))

; backup_exists: source semantics (matches Coq)
(declare-fun source_backup_exists () Bool)
(declare-fun target_backup_exists () Bool)
(assert (= source_backup_exists target_backup_exists))

; backup_version_matches: source semantics (matches Coq)
(declare-fun source_backup_version_matches () Bool)
(declare-fun target_backup_version_matches () Bool)
(assert (= source_backup_version_matches target_backup_version_matches))

; threshold_met: source semantics (matches Coq)
(declare-fun source_threshold_met () Bool)
(declare-fun target_threshold_met () Bool)
(assert (= source_threshold_met target_threshold_met))

; sig_fresh: source semantics (matches Coq)
(declare-fun source_sig_fresh () Bool)
(declare-fun target_sig_fresh () Bool)
(assert (= source_sig_fresh target_sig_fresh))

; keys_different: source semantics (matches Coq)
(declare-fun source_keys_different () Bool)
(declare-fun target_keys_different () Bool)
(assert (= source_keys_different target_keys_different))

; size_bounded: source semantics (matches Coq)
(declare-fun source_size_bounded () Bool)
(declare-fun target_size_bounded () Bool)
(assert (= source_size_bounded target_size_bounded))

; compatible: source semantics (matches Coq)
(declare-fun source_compatible () Bool)
(declare-fun target_compatible () Bool)
(assert (= source_compatible target_compatible))

; changelog_present: source semantics (matches Coq)
(declare-fun source_changelog_present () Bool)
(declare-fun target_changelog_present () Bool)
(assert (= source_changelog_present target_changelog_present))

; not_expired: source semantics (matches Coq)
(declare-fun source_not_expired () Bool)
(declare-fun target_not_expired () Bool)
(assert (= source_not_expired target_not_expired))

; download_valid: source semantics (matches Coq)
(declare-fun source_download_valid () Bool)
(declare-fun target_download_valid () Bool)
(assert (= source_download_valid target_download_valid))

; channel_secure: source semantics (matches Coq)
(declare-fun source_channel_secure () Bool)
(declare-fun target_channel_secure () Bool)
(assert (= source_channel_secure target_channel_secure))

; rollout_percentage_ok: source semantics (matches Coq)
(declare-fun source_rollout_percentage_ok () Bool)
(declare-fun target_rollout_percentage_ok () Bool)
(assert (= source_rollout_percentage_ok target_rollout_percentage_ok))

; reboot_handled: source semantics (matches Coq)
(declare-fun source_reboot_handled () Bool)
(declare-fun target_reboot_handled () Bool)
(assert (= source_reboot_handled target_reboot_handled))

; post_verify_ok: source semantics (matches Coq)
(declare-fun source_post_verify_ok () Bool)
(declare-fun target_post_verify_ok () Bool)
(assert (= source_post_verify_ok target_post_verify_ok))

; audit_logged: source semantics (matches Coq)
(declare-fun source_audit_logged () Bool)
(declare-fun target_audit_logged () Bool)
(assert (= source_audit_logged target_audit_logged))

; notification_sent: source semantics (matches Coq)
(declare-fun source_notification_sent () Bool)
(declare-fun target_notification_sent () Bool)
(assert (= source_notification_sent target_notification_sent))

; update_layers: source semantics (matches Coq)
(declare-fun source_update_layers () Bool)
(declare-fun target_update_layers () Bool)
(assert (= source_update_layers target_update_layers))

; update_001_version_newer: translation preserves property (matches Coq: Theorem)
(declare-fun source_update_001_version_newer () Bool)
(declare-fun target_update_001_version_newer () Bool)
(assert (= source_update_001_version_newer target_update_001_version_newer))

; update_002_sig_count: translation preserves property (matches Coq: Theorem)
(declare-fun source_update_002_sig_count () Bool)
(declare-fun target_update_002_sig_count () Bool)
(assert (= source_update_002_sig_count target_update_002_sig_count))

; update_003_key_trusted: translation preserves property (matches Coq: Theorem)
(declare-fun source_update_003_key_trusted () Bool)
(declare-fun target_update_003_key_trusted () Bool)
(assert (= source_update_003_key_trusted target_update_003_key_trusted))

; update_004_rollback_counter: translation preserves property (matches Coq: Theorem)
(declare-fun source_update_004_rollback_counter () Bool)
(declare-fun target_update_004_rollback_counter () Bool)
(assert (= source_update_004_rollback_counter target_update_004_rollback_counter))

; update_005_min_version: translation preserves property (matches Coq: Theorem)
(declare-fun source_update_005_min_version () Bool)
(declare-fun target_update_005_min_version () Bool)
(assert (= source_update_005_min_version target_update_005_min_version))

; update_006_hash_valid: translation preserves property (matches Coq: Theorem)
(declare-fun source_update_006_hash_valid () Bool)
(declare-fun target_update_006_hash_valid () Bool)
(assert (= source_update_006_hash_valid target_update_006_hash_valid))

; update_007_atomic: translation preserves property (matches Coq: Theorem)
(declare-fun source_update_007_atomic () Bool)
(declare-fun target_update_007_atomic () Bool)
(assert (= source_update_007_atomic target_update_007_atomic))

; update_008_backup_exists: translation preserves property (matches Coq: Theorem)
(declare-fun source_update_008_backup_exists () Bool)
(declare-fun target_update_008_backup_exists () Bool)
(assert (= source_update_008_backup_exists target_update_008_backup_exists))

; update_009_backup_version: translation preserves property (matches Coq: Theorem)
(declare-fun source_update_009_backup_version () Bool)
(declare-fun target_update_009_backup_version () Bool)
(assert (= source_update_009_backup_version target_update_009_backup_version))

; update_010_recovery_restores: translation preserves property (matches Coq: Theorem)
(declare-fun source_update_010_recovery_restores () Bool)
(declare-fun target_update_010_recovery_restores () Bool)
(assert (= source_update_010_recovery_restores target_update_010_recovery_restores))

; update_011_threshold: translation preserves property (matches Coq: Theorem)
(declare-fun source_update_011_threshold () Bool)
(declare-fun target_update_011_threshold () Bool)
(assert (= source_update_011_threshold target_update_011_threshold))

; update_012_sig_fresh: translation preserves property (matches Coq: Theorem)
(declare-fun source_update_012_sig_fresh () Bool)
(declare-fun target_update_012_sig_fresh () Bool)
(assert (= source_update_012_sig_fresh target_update_012_sig_fresh))

; update_013_different_keys: translation preserves property (matches Coq: Theorem)
(declare-fun source_update_013_different_keys () Bool)
(declare-fun target_update_013_different_keys () Bool)
(assert (= source_update_013_different_keys target_update_013_different_keys))

; update_014_size_bounded: translation preserves property (matches Coq: Theorem)
(declare-fun source_update_014_size_bounded () Bool)
(declare-fun target_update_014_size_bounded () Bool)
(assert (= source_update_014_size_bounded target_update_014_size_bounded))

; update_015_compatible: translation preserves property (matches Coq: Theorem)
(declare-fun source_update_015_compatible () Bool)
(declare-fun target_update_015_compatible () Bool)
(assert (= source_update_015_compatible target_update_015_compatible))

; update_016_changelog: translation preserves property (matches Coq: Theorem)
(declare-fun source_update_016_changelog () Bool)
(declare-fun target_update_016_changelog () Bool)
(assert (= source_update_016_changelog target_update_016_changelog))

; update_017_not_expired: translation preserves property (matches Coq: Theorem)
(declare-fun source_update_017_not_expired () Bool)
(declare-fun target_update_017_not_expired () Bool)
(assert (= source_update_017_not_expired target_update_017_not_expired))

; update_018_download_valid: translation preserves property (matches Coq: Theorem)
(declare-fun source_update_018_download_valid () Bool)
(declare-fun target_update_018_download_valid () Bool)
(assert (= source_update_018_download_valid target_update_018_download_valid))

; update_019_secure_channel: translation preserves property (matches Coq: Theorem)
(declare-fun source_update_019_secure_channel () Bool)
(declare-fun target_update_019_secure_channel () Bool)
(assert (= source_update_019_secure_channel target_update_019_secure_channel))

; update_020_rollout_pct: translation preserves property (matches Coq: Theorem)
(declare-fun source_update_020_rollout_pct () Bool)
(declare-fun target_update_020_rollout_pct () Bool)
(assert (= source_update_020_rollout_pct target_update_020_rollout_pct))

; update_021_reboot: translation preserves property (matches Coq: Theorem)
(declare-fun source_update_021_reboot () Bool)
(declare-fun target_update_021_reboot () Bool)
(assert (= source_update_021_reboot target_update_021_reboot))

; update_022_post_verify: translation preserves property (matches Coq: Theorem)
(declare-fun source_update_022_post_verify () Bool)
(declare-fun target_update_022_post_verify () Bool)
(assert (= source_update_022_post_verify target_update_022_post_verify))

; update_023_audit: translation preserves property (matches Coq: Theorem)
(declare-fun source_update_023_audit () Bool)
(declare-fun target_update_023_audit () Bool)
(assert (= source_update_023_audit target_update_023_audit))

; update_024_notification: translation preserves property (matches Coq: Theorem)
(declare-fun source_update_024_notification () Bool)
(declare-fun target_update_024_notification () Bool)
(assert (= source_update_024_notification target_update_024_notification))

; update_025_defense_in_depth: translation preserves property (matches Coq: Theorem)
(declare-fun source_update_025_defense_in_depth () Bool)
(declare-fun target_update_025_defense_in_depth () Bool)
(assert (= source_update_025_defense_in_depth target_update_025_defense_in_depth))

; Verify all translation validations are satisfiable
(check-sat)
(exit)
